% From JaCoP's nonogramRepository/data027.nin
 rows = 20;
 row_rule_len = 4;
 row_rules = array2d(1..rows, 1..row_rule_len, 
[
 0,2,2,2,
 3,1,7,1,
 3,1,9,1,
 0,0,4,13,
 4,1,3,3,
 0,4,2,5,
 0,5,2,5,
 0,4,2,5,
 0,0,4,7,
 0,0,5,7,
 0,0,3,9,
 0,2,7,6,
 0,1,5,7,
 0,0,2,9,
 0,6,2,4,
 0,0,5,6,
 0,0,3,8,
 0,0,3,4,
 0,0,0,3,
 0,0,0,4
]);

 cols = 20;
 col_rule_len = 5;
 col_rules = array2d(1..cols, 1..col_rule_len, 
[
 0,0,0,0,5,
 0,0,0,0,7,
 0,0,0,0,9,
 0,0,0,0,9,
 0,0,0,0,9,
 0,0,0,5,2,
 0,0,1,2,2,
 0,0,3,2,4,
 0,1,1,2,5,
 0,1,6,2,6,
 3,4,3,2,2,
 4,4,1,2,1,
 4,4,2,2,1,
 0,0,10,3,2,
 0,0,3,9,3,
 0,0,0,13,2,
 0,0,0,0,16,
 0,0,1,6,8,
 0,0,1,1,7,
 0,0,0,3,5
]);

